p edge 343 3544
e 1 2
e 1 3
e 1 4
e 1 5
e 1 6
e 1 10
e 1 12
e 1 13
e 1 14
e 1 15
e 1 16
e 1 17
e 1 18
e 1 19
e 1 20
e 1 22
e 1 23
e 1 25
e 1 27
e 1 28
e 1 29
e 1 30
e 1 32
e 2 3
e 2 4
e 2 5
e 2 6
e 2 7
e 2 10
e 2 12
e 2 13
e 2 14
e 2 15
e 2 16
e 2 17
e 2 18
e 2 19
e 2 20
e 2 22
e 2 23
e 2 25
e 2 26
e 2 27
e 2 28
e 2 29
e 2 30
e 3 4
e 3 5
e 3 6
e 3 7
e 3 8
e 3 10
e 3 12
e 3 13
e 3 14
e 3 15
e 3 16
e 3 17
e 3 18
e 3 19
e 3 20
e 3 22
e 3 23
e 3 25
e 3 26
e 3 27
e 3 28
e 3 29
e 3 30
e 3 31
e 4 5
e 4 6
e 4 7
e 4 8
e 4 9
e 4 12
e 4 13
e 4 14
e 4 15
e 4 16
e 4 17
e 4 18
e 4 19
e 4 20
e 4 21
e 4 22
e 4 23
e 4 25
e 4 26
e 4 27
e 4 28
e 4 29
e 4 30
e 4 31
e 5 6
e 5 7
e 5 8
e 5 9
e 5 11
e 5 14
e 5 15
e 5 16
e 5 17
e 5 18
e 5 19
e 5 20
e 5 21
e 5 22
e 5 25
e 5 26
e 5 28
e 5 29
e 5 30
e 5 31
e 6 7
e 6 8
e 6 9
e 6 11
e 6 15
e 6 16
e 6 17
e 6 18
e 6 19
e 6 20
e 6 21
e 6 22
e 6 25
e 6 26
e 6 28
e 6 29
e 6 31
e 6 34
e 7 8
e 7 9
e 7 11
e 7 17
e 7 18
e 7 19
e 7 20
e 7 21
e 7 22
e 7 24
e 7 26
e 7 28
e 7 31
e 8 9
e 8 11
e 8 17
e 8 18
e 8 19
e 8 20
e 8 21
e 8 22
e 8 24
e 8 26
e 8 31
e 9 11
e 9 18
e 9 19
e 9 20
e 9 21
e 9 24
e 9 26
e 9 31
e 10 12
e 10 13
e 10 14
e 10 15
e 10 16
e 10 23
e 10 27
e 10 32
e 11 20
e 11 21
e 11 24
e 11 26
e 12 13
e 12 14
e 12 15
e 12 16
e 12 17
e 12 22
e 12 23
e 12 25
e 12 27
e 12 32
e 13 14
e 13 15
e 13 16
e 13 17
e 13 18
e 13 19
e 13 22
e 13 23
e 13 25
e 13 27
e 13 28
e 13 29
e 13 30
e 13 32
e 13 33
e 13 35
e 14 15
e 14 16
e 14 17
e 14 18
e 14 19
e 14 20
e 14 22
e 14 23
e 14 25
e 14 27
e 14 28
e 14 29
e 14 30
e 14 32
e 14 33
e 14 35
e 15 16
e 15 17
e 15 18
e 15 19
e 15 20
e 15 22
e 15 23
e 15 25
e 15 27
e 15 28
e 15 29
e 15 30
e 15 32
e 15 33
e 15 35
e 16 17
e 16 18
e 16 19
e 16 20
e 16 22
e 16 23
e 16 25
e 16 26
e 16 27
e 16 28
e 16 29
e 16 30
e 16 32
e 16 33
e 17 18
e 17 19
e 17 20
e 17 21
e 17 22
e 17 23
e 17 25
e 17 26
e 17 27
e 17 28
e 17 29
e 17 30
e 17 31
e 17 33
e 17 34
e 18 19
e 18 20
e 18 21
e 18 22
e 18 25
e 18 26
e 18 27
e 18 28
e 18 29
e 18 30
e 18 31
e 18 33
e 18 34
e 19 20
e 19 21
e 19 22
e 19 25
e 19 26
e 19 28
e 19 29
e 19 30
e 19 31
e 19 34
e 20 21
e 20 22
e 20 25
e 20 26
e 20 28
e 20 29
e 20 30
e 20 31
e 20 34
e 21 22
e 21 24
e 21 26
e 21 28
e 21 31
e 21 34
e 22 23
e 22 25
e 22 26
e 22 27
e 22 28
e 22 29
e 22 30
e 22 31
e 22 33
e 22 34
e 23 25
e 23 27
e 23 28
e 23 29
e 23 30
e 23 32
e 23 33
e 23 35
e 24 26
e 24 36
e 25 26
e 25 27
e 25 28
e 25 29
e 25 30
e 25 31
e 25 32
e 25 33
e 25 34
e 25 35
e 26 28
e 26 29
e 26 30
e 26 31
e 26 33
e 26 34
e 26 36
e 27 28
e 27 29
e 27 30
e 27 32
e 27 33
e 27 35
e 28 29
e 28 30
e 28 31
e 28 33
e 28 34
e 28 35
e 29 30
e 29 31
e 29 32
e 29 33
e 29 34
e 29 35
e 29 39
e 29 40
e 30 31
e 30 32
e 30 33
e 30 34
e 30 35
e 30 37
e 30 38
e 30 39
e 30 40
e 31 33
e 31 34
e 31 36
e 31 41
e 31 42
e 31 43
e 31 44
e 32 33
e 32 35
e 32 37
e 32 38
e 32 45
e 33 34
e 33 35
e 33 37
e 33 38
e 33 39
e 33 40
e 33 41
e 33 42
e 33 45
e 33 46
e 33 47
e 34 36
e 34 41
e 34 42
e 34 43
e 34 44
e 34 47
e 34 48
e 35 37
e 35 38
e 35 39
e 35 40
e 35 45
e 36 41
e 36 42
e 36 43
e 36 44
e 36 48
e 36 50
e 37 38
e 37 39
e 37 40
e 37 41
e 37 45
e 37 46
e 37 47
e 37 49
e 37 51
e 37 53
e 37 55
e 37 57
e 38 39
e 38 40
e 38 41
e 38 42
e 38 45
e 38 46
e 38 47
e 38 49
e 38 51
e 38 52
e 38 53
e 38 55
e 38 57
e 38 58
e 39 40
e 39 41
e 39 42
e 39 43
e 39 45
e 39 46
e 39 47
e 39 49
e 39 51
e 39 52
e 39 53
e 39 55
e 39 57
e 39 58
e 39 59
e 40 41
e 40 42
e 40 43
e 40 44
e 40 45
e 40 46
e 40 47
e 40 49
e 40 51
e 40 52
e 40 53
e 40 55
e 40 57
e 40 58
e 40 59
e 41 42
e 41 43
e 41 44
e 41 46
e 41 47
e 41 48
e 41 49
e 41 50
e 41 52
e 41 53
e 41 54
e 41 55
e 41 56
e 41 58
e 41 59
e 41 60
e 42 43
e 42 44
e 42 46
e 42 47
e 42 48
e 42 49
e 42 50
e 42 52
e 42 53
e 42 54
e 42 55
e 42 56
e 42 59
e 42 60
e 42 61
e 43 44
e 43 46
e 43 47
e 43 48
e 43 49
e 43 50
e 43 52
e 43 53
e 43 54
e 43 56
e 43 60
e 43 61
e 44 46
e 44 47
e 44 48
e 44 50
e 44 52
e 44 54
e 44 56
e 44 60
e 44 61
e 45 46
e 45 49
e 45 51
e 45 53
e 45 55
e 45 62
e 46 47
e 46 48
e 46 49
e 46 50
e 46 51
e 46 52
e 46 53
e 46 55
e 46 56
e 46 57
e 46 58
e 46 59
e 47 48
e 47 49
e 47 50
e 47 51
e 47 52
e 47 53
e 47 54
e 47 55
e 47 56
e 47 57
e 47 58
e 47 59
e 47 60
e 48 50
e 48 52
e 48 54
e 48 56
e 48 60
e 48 61
e 49 50
e 49 51
e 49 52
e 49 53
e 49 55
e 49 57
e 49 58
e 49 59
e 49 62
e 50 52
e 50 53
e 50 54
e 50 56
e 50 58
e 50 59
e 50 60
e 50 61
e 51 52
e 51 53
e 51 55
e 51 57
e 51 58
e 51 59
e 51 62
e 52 53
e 52 54
e 52 55
e 52 56
e 52 57
e 52 58
e 52 59
e 52 60
e 52 61
e 53 54
e 53 55
e 53 56
e 53 57
e 53 58
e 53 59
e 53 60
e 53 62
e 53 65
e 53 66
e 53 67
e 53 68
e 54 56
e 54 58
e 54 59
e 54 60
e 54 61
e 54 71
e 54 72
e 55 56
e 55 57
e 55 58
e 55 59
e 55 62
e 55 63
e 55 64
e 55 65
e 55 66
e 55 67
e 55 68
e 55 69
e 56 58
e 56 59
e 56 60
e 56 61
e 56 70
e 56 71
e 56 72
e 57 58
e 57 59
e 57 60
e 57 62
e 57 63
e 57 64
e 57 65
e 57 66
e 57 67
e 57 68
e 57 69
e 57 70
e 57 71
e 57 73
e 58 59
e 58 60
e 58 61
e 58 62
e 58 63
e 58 64
e 58 65
e 58 66
e 58 67
e 58 68
e 58 69
e 58 70
e 58 71
e 58 73
e 59 60
e 59 61
e 59 63
e 59 64
e 59 65
e 59 66
e 59 67
e 59 68
e 59 69
e 59 70
e 59 71
e 59 73
e 60 61
e 60 67
e 60 68
e 60 69
e 60 70
e 60 71
e 60 72
e 61 68
e 61 69
e 61 70
e 61 71
e 61 72
e 62 63
e 62 64
e 62 65
e 62 66
e 62 74
e 63 64
e 63 65
e 63 66
e 63 67
e 63 68
e 63 69
e 63 70
e 63 73
e 63 74
e 63 75
e 63 76
e 63 77
e 63 78
e 63 79
e 63 80
e 63 81
e 63 83
e 64 65
e 64 66
e 64 67
e 64 68
e 64 69
e 64 70
e 64 73
e 64 74
e 64 75
e 64 76
e 64 77
e 64 78
e 64 79
e 64 80
e 64 81
e 64 83
e 65 66
e 65 67
e 65 68
e 65 69
e 65 70
e 65 71
e 65 73
e 65 74
e 65 75
e 65 76
e 65 77
e 65 78
e 65 79
e 65 80
e 65 81
e 65 83
e 66 67
e 66 68
e 66 69
e 66 70
e 66 71
e 66 73
e 66 74
e 66 75
e 66 76
e 66 77
e 66 78
e 66 79
e 66 80
e 66 81
e 66 83
e 67 68
e 67 69
e 67 70
e 67 71
e 67 72
e 67 73
e 67 74
e 67 75
e 67 76
e 67 77
e 67 78
e 67 79
e 67 81
e 67 82
e 68 69
e 68 70
e 68 71
e 68 72
e 68 73
e 68 75
e 68 76
e 68 77
e 68 78
e 68 79
e 68 82
e 69 70
e 69 71
e 69 72
e 69 73
e 69 75
e 69 76
e 69 78
e 69 79
e 69 82
e 70 71
e 70 72
e 70 73
e 70 75
e 70 76
e 70 78
e 70 79
e 70 82
e 71 72
e 71 73
e 71 76
e 71 78
e 71 79
e 71 82
e 71 84
e 72 76
e 73 74
e 73 75
e 73 76
e 73 77
e 73 78
e 73 79
e 73 80
e 73 81
e 73 82
e 73 83
e 74 75
e 74 77
e 74 78
e 74 80
e 74 81
e 74 83
e 75 76
e 75 77
e 75 78
e 75 79
e 75 80
e 75 81
e 75 82
e 75 83
e 76 77
e 76 78
e 76 79
e 76 81
e 76 82
e 76 84
e 76 85
e 77 78
e 77 79
e 77 80
e 77 81
e 77 82
e 77 83
e 77 86
e 78 79
e 78 80
e 78 81
e 78 82
e 78 83
e 78 84
e 78 86
e 78 87
e 78 88
e 78 89
e 78 90
e 79 81
e 79 82
e 79 83
e 79 84
e 79 85
e 79 87
e 79 88
e 79 89
e 79 90
e 79 91
e 79 92
e 79 93
e 80 81
e 80 83
e 81 82
e 81 83
e 81 84
e 81 86
e 81 87
e 81 88
e 81 89
e 81 90
e 81 91
e 81 92
e 81 93
e 81 96
e 81 99
e 82 84
e 82 85
e 82 86
e 82 87
e 82 88
e 82 89
e 82 90
e 82 91
e 82 92
e 82 93
e 82 94
e 82 95
e 82 97
e 83 86
e 83 87
e 83 88
e 83 89
e 83 96
e 83 98
e 83 99
e 84 85
e 84 87
e 84 88
e 84 89
e 84 90
e 84 91
e 84 92
e 84 93
e 84 94
e 84 95
e 84 97
e 85 91
e 85 92
e 85 93
e 85 94
e 85 95
e 85 97
e 86 87
e 86 88
e 86 89
e 86 90
e 86 91
e 86 92
e 86 93
e 86 96
e 86 97
e 86 98
e 86 99
e 86 100
e 86 101
e 86 102
e 86 103
e 86 104
e 86 106
e 86 107
e 86 108
e 86 109
e 86 111
e 87 88
e 87 89
e 87 90
e 87 91
e 87 92
e 87 93
e 87 96
e 87 97
e 87 98
e 87 99
e 87 100
e 87 101
e 87 102
e 87 103
e 87 104
e 87 106
e 87 107
e 87 108
e 87 109
e 88 89
e 88 90
e 88 91
e 88 92
e 88 93
e 88 96
e 88 97
e 88 98
e 88 99
e 88 100
e 88 101
e 88 102
e 88 103
e 88 104
e 88 105
e 88 107
e 88 108
e 88 109
e 89 90
e 89 91
e 89 92
e 89 93
e 89 94
e 89 96
e 89 97
e 89 98
e 89 99
e 89 100
e 89 101
e 89 102
e 89 103
e 89 104
e 89 105
e 89 107
e 89 109
e 90 91
e 90 92
e 90 93
e 90 94
e 90 95
e 90 96
e 90 97
e 90 99
e 90 100
e 90 101
e 90 102
e 90 103
e 90 104
e 90 105
e 90 109
e 91 92
e 91 93
e 91 94
e 91 95
e 91 96
e 91 97
e 91 99
e 91 100
e 91 101
e 91 102
e 91 103
e 91 104
e 91 105
e 91 109
e 92 93
e 92 94
e 92 95
e 92 96
e 92 97
e 92 100
e 92 101
e 92 102
e 92 103
e 92 104
e 92 105
e 92 109
e 93 94
e 93 95
e 93 96
e 93 97
e 93 100
e 93 101
e 93 102
e 93 103
e 93 104
e 93 105
e 93 109
e 94 95
e 94 97
e 94 101
e 94 103
e 94 104
e 94 105
e 95 97
e 95 104
e 95 105
e 96 98
e 96 99
e 96 100
e 96 101
e 96 102
e 96 103
e 96 106
e 96 107
e 96 108
e 96 109
e 96 110
e 96 111
e 97 100
e 97 101
e 97 102
e 97 103
e 97 104
e 97 105
e 97 109
e 98 99
e 98 100
e 98 102
e 98 106
e 98 107
e 98 108
e 98 110
e 98 111
e 99 100
e 99 101
e 99 102
e 99 106
e 99 107
e 99 108
e 99 109
e 99 110
e 99 111
e 100 101
e 100 102
e 100 103
e 100 104
e 100 105
e 100 106
e 100 107
e 100 108
e 100 109
e 100 110
e 100 111
e 101 102
e 101 103
e 101 104
e 101 105
e 101 107
e 101 108
e 101 109
e 101 111
e 102 103
e 102 104
e 102 105
e 102 106
e 102 107
e 102 108
e 102 109
e 102 110
e 102 111
e 102 114
e 102 115
e 102 116
e 102 117
e 103 104
e 103 105
e 103 107
e 103 108
e 103 109
e 103 111
e 103 116
e 103 117
e 103 118
e 103 119
e 103 120
e 104 105
e 104 109
e 104 118
e 104 119
e 104 120
e 104 121
e 104 122
e 105 109
e 105 119
e 105 120
e 105 121
e 105 122
e 106 107
e 106 108
e 106 109
e 106 110
e 106 111
e 106 112
e 106 113
e 107 108
e 107 109
e 107 110
e 107 111
e 107 113
e 108 109
e 108 110
e 108 111
e 108 112
e 108 113
e 108 114
e 108 115
e 108 116
e 108 117
e 109 110
e 109 111
e 109 113
e 109 114
e 109 115
e 109 116
e 109 117
e 109 118
e 109 119
e 109 120
e 109 121
e 110 111
e 110 112
e 110 113
e 110 114
e 110 115
e 111 112
e 111 113
e 111 114
e 111 115
e 111 116
e 111 117
e 112 113
e 112 114
e 113 114
e 113 115
e 113 116
e 113 117
e 113 118
e 113 119
e 113 125
e 113 127
e 113 130
e 114 115
e 114 116
e 114 117
e 114 118
e 114 119
e 114 120
e 114 121
e 114 125
e 114 127
e 114 128
e 114 130
e 114 132
e 115 116
e 115 117
e 115 118
e 115 119
e 115 120
e 115 121
e 115 122
e 115 125
e 115 127
e 115 128
e 115 130
e 115 132
e 116 117
e 116 118
e 116 119
e 116 120
e 116 121
e 116 122
e 116 125
e 116 127
e 116 128
e 116 130
e 116 132
e 117 118
e 117 119
e 117 120
e 117 121
e 117 122
e 117 123
e 117 125
e 117 126
e 117 127
e 117 128
e 117 130
e 117 132
e 118 119
e 118 120
e 118 121
e 118 122
e 118 123
e 118 124
e 118 125
e 118 126
e 118 127
e 118 128
e 118 129
e 118 130
e 118 131
e 118 132
e 118 136
e 119 120
e 119 121
e 119 122
e 119 123
e 119 124
e 119 125
e 119 126
e 119 127
e 119 128
e 119 129
e 119 130
e 119 131
e 119 132
e 119 133
e 120 121
e 120 122
e 120 123
e 120 124
e 120 125
e 120 126
e 120 127
e 120 128
e 120 129
e 120 130
e 120 131
e 120 132
e 120 133
e 120 134
e 121 122
e 121 123
e 121 124
e 121 125
e 121 126
e 121 128
e 121 129
e 121 130
e 121 131
e 121 133
e 121 134
e 121 135
e 122 123
e 122 124
e 122 125
e 122 126
e 122 128
e 122 129
e 122 130
e 122 131
e 122 133
e 122 134
e 122 135
e 123 124
e 123 125
e 123 126
e 123 128
e 123 129
e 123 130
e 123 131
e 123 133
e 123 134
e 123 135
e 124 126
e 124 128
e 124 129
e 124 131
e 124 133
e 124 134
e 124 135
e 125 126
e 125 127
e 125 128
e 125 129
e 125 130
e 125 131
e 125 132
e 125 133
e 125 134
e 125 136
e 125 137
e 126 128
e 126 129
e 126 130
e 126 131
e 126 132
e 126 133
e 126 134
e 126 135
e 126 136
e 127 128
e 127 130
e 127 132
e 127 136
e 127 137
e 128 129
e 128 130
e 128 131
e 128 132
e 128 133
e 128 134
e 128 135
e 128 136
e 129 130
e 129 131
e 129 132
e 129 133
e 129 134
e 129 135
e 129 136
e 129 142
e 129 143
e 130 131
e 130 132
e 130 133
e 130 134
e 130 136
e 130 137
e 130 141
e 131 132
e 131 133
e 131 134
e 131 135
e 131 136
e 131 142
e 131 143
e 132 133
e 132 134
e 132 135
e 132 136
e 132 137
e 132 138
e 132 139
e 132 140
e 132 141
e 132 144
e 132 145
e 132 146
e 133 134
e 133 135
e 133 136
e 133 142
e 133 143
e 133 146
e 134 135
e 134 136
e 134 142
e 134 143
e 134 146
e 135 136
e 135 142
e 135 143
e 136 137
e 136 139
e 136 140
e 136 141
e 136 142
e 136 143
e 136 144
e 136 145
e 136 146
e 136 150
e 137 138
e 137 139
e 137 140
e 137 141
e 137 144
e 137 147
e 137 148
e 138 139
e 138 140
e 138 141
e 138 144
e 138 145
e 138 147
e 138 148
e 138 149
e 138 150
e 138 152
e 138 154
e 138 156
e 138 157
e 138 158
e 138 162
e 139 140
e 139 141
e 139 144
e 139 145
e 139 147
e 139 148
e 139 149
e 139 150
e 139 152
e 139 154
e 139 156
e 139 157
e 139 158
e 139 159
e 139 162
e 140 141
e 140 144
e 140 145
e 140 146
e 140 147
e 140 148
e 140 149
e 140 150
e 140 152
e 140 153
e 140 154
e 140 156
e 140 157
e 140 158
e 140 159
e 140 162
e 141 144
e 141 145
e 141 146
e 141 147
e 141 148
e 141 149
e 141 150
e 141 151
e 141 152
e 141 153
e 141 154
e 141 156
e 141 157
e 141 158
e 141 159
e 142 143
e 142 144
e 142 145
e 142 146
e 142 149
e 142 150
e 142 151
e 142 152
e 142 153
e 142 155
e 142 161
e 143 145
e 143 146
e 143 150
e 143 151
e 143 153
e 143 155
e 144 145
e 144 146
e 144 147
e 144 148
e 144 149
e 144 150
e 144 151
e 144 152
e 144 153
e 144 154
e 144 155
e 144 157
e 144 158
e 144 159
e 144 160
e 144 161
e 145 146
e 145 148
e 145 149
e 145 150
e 145 151
e 145 152
e 145 153
e 145 154
e 145 155
e 145 157
e 145 158
e 145 159
e 145 160
e 145 161
e 146 149
e 146 150
e 146 151
e 146 152
e 146 153
e 146 155
e 146 157
e 146 159
e 146 160
e 146 161
e 147 148
e 147 149
e 147 154
e 147 156
e 147 157
e 147 158
e 147 162
e 148 149
e 148 150
e 148 151
e 148 152
e 148 153
e 148 154
e 148 156
e 148 157
e 148 158
e 148 159
e 148 160
e 148 162
e 149 150
e 149 151
e 149 152
e 149 153
e 149 154
e 149 155
e 149 157
e 149 158
e 149 159
e 149 160
e 149 161
e 150 151
e 150 152
e 150 153
e 150 154
e 150 155
e 150 157
e 150 158
e 150 159
e 150 160
e 150 161
e 151 152
e 151 153
e 151 155
e 151 157
e 151 158
e 151 159
e 151 160
e 151 161
e 152 153
e 152 154
e 152 155
e 152 157
e 152 158
e 152 159
e 152 160
e 152 161
e 153 154
e 153 155
e 153 157
e 153 158
e 153 159
e 153 160
e 153 161
e 154 156
e 154 157
e 154 158
e 154 159
e 154 160
e 154 162
e 154 168
e 155 157
e 155 159
e 155 160
e 155 161
e 155 165
e 155 166
e 155 167
e 156 157
e 156 158
e 156 159
e 156 162
e 156 168
e 157 158
e 157 159
e 157 160
e 157 161
e 157 162
e 157 163
e 157 164
e 158 159
e 158 160
e 158 161
e 158 162
e 158 163
e 158 164
e 158 165
e 158 168
e 158 169
e 158 170
e 158 171
e 158 172
e 159 160
e 159 161
e 159 162
e 159 163
e 159 164
e 159 165
e 159 166
e 159 167
e 159 170
e 159 171
e 159 172
e 160 161
e 160 163
e 160 164
e 160 165
e 160 166
e 160 167
e 160 171
e 160 172
e 161 163
e 161 164
e 161 165
e 161 166
e 161 167
e 161 172
e 161 173
e 162 168
e 162 169
e 162 170
e 163 164
e 163 165
e 163 166
e 163 167
e 163 168
e 163 169
e 163 170
e 163 171
e 163 172
e 163 173
e 163 174
e 163 176
e 163 177
e 163 178
e 163 179
e 163 180
e 163 181
e 163 184
e 163 185
e 163 186
e 164 165
e 164 166
e 164 167
e 164 169
e 164 170
e 164 171
e 164 172
e 164 173
e 164 174
e 164 175
e 164 176
e 164 177
e 164 178
e 164 179
e 164 180
e 164 181
e 164 182
e 164 185
e 164 186
e 164 187
e 165 166
e 165 167
e 165 169
e 165 170
e 165 171
e 165 172
e 165 173
e 165 174
e 165 175
e 165 176
e 165 177
e 165 178
e 165 180
e 165 181
e 165 182
e 165 185
e 165 186
e 165 187
e 165 188
e 166 167
e 166 170
e 166 171
e 166 172
e 166 173
e 166 174
e 166 175
e 166 176
e 166 177
e 166 178
e 166 180
e 166 181
e 166 182
e 166 185
e 166 186
e 166 187
e 166 188
e 167 171
e 167 172
e 167 173
e 167 174
e 167 175
e 167 176
e 167 177
e 167 178
e 167 180
e 167 181
e 167 182
e 167 185
e 167 186
e 167 187
e 167 188
e 167 189
e 168 169
e 168 170
e 168 171
e 168 179
e 168 184
e 168 191
e 169 170
e 169 171
e 169 172
e 169 177
e 169 178
e 169 179
e 169 180
e 169 184
e 169 186
e 169 191
e 170 171
e 170 172
e 170 177
e 170 178
e 170 179
e 170 180
e 170 184
e 170 186
e 170 191
e 171 172
e 171 173
e 171 176
e 171 177
e 171 178
e 171 179
e 171 180
e 171 181
e 171 184
e 171 185
e 171 186
e 172 173
e 172 174
e 172 175
e 172 176
e 172 177
e 172 178
e 172 179
e 172 180
e 172 181
e 172 182
e 172 184
e 172 185
e 172 186
e 172 187
e 172 188
e 173 174
e 173 175
e 173 176
e 173 177
e 173 178
e 173 180
e 173 181
e 173 182
e 173 183
e 173 185
e 173 186
e 173 187
e 173 188
e 173 189
e 173 190
e 174 175
e 174 176
e 174 177
e 174 178
e 174 181
e 174 182
e 174 183
e 174 185
e 174 187
e 174 188
e 174 189
e 174 190
e 175 176
e 175 177
e 175 181
e 175 182
e 175 183
e 175 185
e 175 187
e 175 188
e 175 189
e 175 190
e 176 177
e 176 178
e 176 180
e 176 181
e 176 182
e 176 183
e 176 185
e 176 186
e 176 187
e 176 188
e 176 189
e 176 190
e 177 178
e 177 179
e 177 180
e 177 181
e 177 182
e 177 184
e 177 185
e 177 186
e 177 187
e 177 188
e 177 189
e 178 179
e 178 180
e 178 181
e 178 182
e 178 184
e 178 185
e 178 186
e 178 187
e 178 188
e 178 189
e 178 197
e 179 180
e 179 184
e 179 186
e 179 191
e 179 192
e 179 193
e 179 194
e 179 195
e 180 181
e 180 182
e 180 184
e 180 185
e 180 186
e 180 187
e 180 188
e 180 189
e 180 195
e 180 196
e 180 197
e 180 198
e 180 199
e 181 182
e 181 183
e 181 185
e 181 186
e 181 187
e 181 188
e 181 189
e 181 190
e 182 183
e 182 185
e 182 186
e 182 187
e 182 188
e 182 189
e 182 190
e 183 185
e 183 187
e 183 188
e 183 189
e 183 190
e 184 186
e 184 191
e 184 192
e 184 193
e 185 186
e 185 187
e 185 188
e 185 189
e 185 190
e 185 198
e 185 199
e 186 187
e 186 188
e 186 189
e 186 190
e 186 192
e 186 193
e 186 194
e 186 195
e 186 196
e 186 197
e 186 198
e 186 199
e 186 200
e 187 188
e 187 189
e 187 190
e 187 196
e 187 197
e 187 198
e 187 199
e 187 200
e 187 201
e 187 202
e 188 189
e 188 190
e 188 197
e 188 198
e 188 199
e 188 200
e 188 201
e 188 202
e 189 190
e 189 199
e 189 200
e 189 201
e 189 202
e 190 201
e 190 202
e 191 192
e 191 193
e 191 194
e 191 195
e 191 196
e 191 203
e 192 193
e 192 194
e 192 195
e 192 196
e 192 197
e 192 198
e 192 199
e 192 203
e 192 204
e 192 206
e 192 207
e 192 210
e 192 212
e 192 213
e 192 215
e 193 194
e 193 195
e 193 196
e 193 197
e 193 198
e 193 199
e 193 203
e 193 204
e 193 205
e 193 206
e 193 207
e 193 210
e 193 212
e 193 213
e 193 215
e 194 195
e 194 196
e 194 197
e 194 198
e 194 199
e 194 200
e 194 203
e 194 204
e 194 205
e 194 206
e 194 207
e 194 208
e 194 210
e 194 211
e 194 212
e 194 213
e 194 215
e 195 196
e 195 197
e 195 198
e 195 199
e 195 200
e 195 203
e 195 204
e 195 205
e 195 206
e 195 207
e 195 208
e 195 210
e 195 211
e 195 212
e 195 213
e 196 197
e 196 198
e 196 199
e 196 200
e 196 201
e 196 203
e 196 204
e 196 205
e 196 206
e 196 207
e 196 208
e 196 209
e 196 210
e 196 211
e 196 213
e 196 214
e 197 198
e 197 199
e 197 200
e 197 201
e 197 203
e 197 204
e 197 205
e 197 206
e 197 207
e 197 208
e 197 209
e 197 210
e 197 211
e 197 213
e 197 214
e 198 199
e 198 200
e 198 201
e 198 202
e 198 203
e 198 204
e 198 205
e 198 206
e 198 207
e 198 208
e 198 209
e 198 210
e 198 211
e 198 213
e 198 214
e 199 200
e 199 201
e 199 202
e 199 204
e 199 205
e 199 207
e 199 208
e 199 209
e 199 210
e 199 211
e 199 213
e 199 214
e 200 201
e 200 202
e 200 204
e 200 205
e 200 207
e 200 208
e 200 209
e 200 210
e 200 211
e 200 213
e 200 214
e 201 202
e 201 204
e 201 205
e 201 207
e 201 208
e 201 209
e 201 211
e 201 214
e 202 205
e 202 208
e 202 209
e 202 211
e 202 214
e 203 204
e 203 206
e 203 207
e 203 210
e 203 212
e 203 213
e 203 215
e 204 205
e 204 206
e 204 207
e 204 208
e 204 209
e 204 210
e 204 211
e 204 212
e 204 213
e 204 214
e 204 215
e 205 207
e 205 208
e 205 209
e 205 210
e 205 211
e 205 213
e 205 214
e 206 207
e 206 210
e 206 212
e 206 213
e 206 215
e 207 208
e 207 209
e 207 210
e 207 211
e 207 212
e 207 213
e 207 214
e 207 215
e 208 209
e 208 210
e 208 211
e 208 213
e 208 214
e 208 221
e 209 210
e 209 211
e 209 213
e 209 214
e 209 221
e 210 211
e 210 212
e 210 213
e 210 214
e 210 215
e 210 216
e 210 217
e 210 218
e 210 219
e 210 220
e 211 213
e 211 214
e 211 219
e 211 220
e 211 221
e 212 213
e 212 215
e 212 216
e 213 214
e 213 215
e 213 216
e 213 217
e 213 218
e 213 219
e 213 220
e 213 221
e 213 222
e 214 217
e 214 218
e 214 219
e 214 220
e 214 221
e 214 222
e 215 216
e 215 217
e 215 218
e 215 219
e 216 217
e 216 218
e 216 219
e 216 220
e 216 222
e 216 223
e 216 224
e 216 225
e 217 218
e 217 219
e 217 220
e 217 221
e 217 222
e 217 223
e 217 224
e 217 225
e 217 227
e 218 219
e 218 220
e 218 221
e 218 222
e 218 223
e 218 224
e 218 225
e 218 227
e 218 228
e 219 220
e 219 221
e 219 222
e 219 223
e 219 224
e 219 225
e 219 227
e 219 228
e 220 221
e 220 222
e 220 223
e 220 224
e 220 225
e 220 226
e 220 227
e 220 228
e 221 222
e 221 223
e 221 224
e 221 225
e 221 226
e 221 227
e 221 228
e 221 229
e 222 223
e 222 224
e 222 225
e 222 226
e 222 227
e 222 228
e 222 229
e 223 224
e 223 225
e 223 227
e 223 228
e 223 229
e 223 230
e 223 231
e 223 232
e 223 233
e 223 234
e 223 235
e 223 236
e 224 225
e 224 226
e 224 227
e 224 228
e 224 229
e 224 230
e 224 235
e 224 236
e 224 237
e 224 238
e 224 239
e 225 226
e 225 227
e 225 228
e 225 229
e 225 230
e 225 235
e 225 236
e 225 237
e 225 238
e 225 239
e 225 240
e 226 227
e 226 228
e 226 229
e 226 240
e 226 241
e 226 242
e 226 243
e 226 244
e 227 228
e 227 229
e 227 230
e 227 231
e 227 232
e 227 233
e 227 234
e 227 235
e 227 236
e 227 237
e 227 238
e 227 239
e 227 240
e 227 241
e 227 242
e 227 245
e 227 246
e 227 247
e 227 248
e 228 229
e 228 230
e 228 233
e 228 234
e 228 235
e 228 236
e 228 237
e 228 238
e 228 239
e 228 240
e 228 241
e 228 242
e 228 243
e 228 245
e 228 246
e 228 247
e 228 248
e 229 234
e 229 235
e 229 236
e 229 237
e 229 238
e 229 239
e 229 240
e 229 241
e 229 242
e 229 243
e 229 244
e 229 245
e 229 246
e 229 247
e 229 248
e 229 249
e 230 231
e 230 232
e 230 233
e 230 234
e 230 235
e 230 236
e 230 237
e 230 238
e 230 245
e 230 246
e 230 251
e 230 252
e 231 232
e 231 233
e 231 234
e 231 235
e 231 236
e 231 237
e 231 238
e 231 239
e 231 245
e 231 246
e 231 247
e 231 251
e 231 252
e 231 254
e 231 256
e 231 258
e 231 259
e 232 233
e 232 234
e 232 235
e 232 236
e 232 237
e 232 238
e 232 239
e 232 245
e 232 246
e 232 247
e 232 251
e 232 252
e 232 254
e 232 256
e 232 258
e 232 259
e 232 260
e 233 234
e 233 235
e 233 236
e 233 237
e 233 238
e 233 239
e 233 240
e 233 245
e 233 246
e 233 247
e 233 251
e 233 252
e 233 254
e 233 256
e 233 258
e 233 259
e 233 261
e 234 235
e 234 236
e 234 237
e 234 238
e 234 239
e 234 240
e 234 241
e 234 245
e 234 246
e 234 247
e 234 248
e 234 251
e 234 252
e 234 254
e 234 256
e 234 258
e 234 259
e 235 236
e 235 237
e 235 238
e 235 239
e 235 240
e 235 241
e 235 242
e 235 245
e 235 246
e 235 247
e 235 248
e 235 251
e 235 252
e 235 254
e 235 256
e 236 237
e 236 238
e 236 239
e 236 240
e 236 241
e 236 242
e 236 243
e 236 245
e 236 246
e 236 247
e 236 248
e 236 249
e 236 251
e 236 252
e 236 253
e 236 254
e 236 255
e 236 256
e 236 257
e 237 238
e 237 239
e 237 240
e 237 241
e 237 242
e 237 243
e 237 245
e 237 246
e 237 247
e 237 248
e 237 249
e 237 251
e 237 252
e 237 253
e 237 254
e 237 255
e 237 256
e 237 257
e 238 239
e 238 240
e 238 241
e 238 242
e 238 243
e 238 244
e 238 245
e 238 246
e 238 247
e 238 248
e 238 249
e 238 250
e 238 252
e 238 253
e 238 254
e 238 255
e 238 256
e 238 257
e 239 240
e 239 241
e 239 242
e 239 243
e 239 244
e 239 245
e 239 246
e 239 247
e 239 248
e 239 249
e 239 250
e 239 252
e 239 253
e 239 254
e 239 255
e 239 256
e 239 257
e 240 241
e 240 242
e 240 243
e 240 244
e 240 245
e 240 246
e 240 247
e 240 248
e 240 249
e 240 250
e 240 252
e 240 253
e 240 255
e 240 257
e 241 242
e 241 243
e 241 244
e 241 245
e 241 246
e 241 247
e 241 248
e 241 249
e 241 250
e 241 253
e 241 255
e 241 257
e 242 243
e 242 244
e 242 246
e 242 247
e 242 248
e 242 249
e 242 250
e 242 253
e 242 255
e 242 257
e 243 244
e 243 246
e 243 247
e 243 248
e 243 249
e 243 250
e 243 253
e 243 255
e 243 257
e 244 247
e 244 248
e 244 249
e 244 250
e 244 253
e 244 255
e 244 257
e 245 246
e 245 247
e 245 248
e 245 251
e 245 252
e 245 254
e 245 256
e 245 258
e 245 259
e 245 260
e 245 261
e 246 247
e 246 248
e 246 249
e 246 251
e 246 252
e 246 253
e 246 254
e 246 255
e 246 256
e 246 257
e 246 260
e 246 261
e 247 248
e 247 249
e 247 250
e 247 252
e 247 253
e 247 254
e 247 255
e 247 256
e 247 257
e 248 249
e 248 250
e 248 252
e 248 253
e 248 254
e 248 255
e 248 257
e 249 250
e 249 253
e 249 255
e 249 257
e 250 253
e 250 255
e 250 257
e 251 252
e 251 254
e 251 256
e 251 258
e 251 259
e 251 260
e 251 261
e 252 254
e 252 256
e 252 258
e 252 259
e 252 260
e 252 261
e 253 255
e 253 257
e 254 256
e 254 258
e 254 259
e 254 260
e 254 261
e 255 257
e 255 268
e 256 258
e 256 259
e 256 260
e 256 261
e 256 262
e 257 266
e 257 267
e 257 268
e 258 259
e 258 260
e 258 261
e 258 269
e 259 260
e 259 261
e 259 262
e 259 269
e 260 261
e 260 262
e 260 263
e 260 264
e 260 269
e 260 270
e 261 262
e 261 263
e 261 264
e 261 269
e 261 270
e 261 271
e 262 263
e 262 264
e 262 265
e 262 266
e 262 269
e 262 270
e 262 271
e 262 272
e 262 276
e 262 277
e 262 278
e 262 279
e 263 264
e 263 265
e 263 266
e 263 267
e 263 268
e 263 269
e 263 270
e 263 271
e 263 272
e 263 273
e 263 274
e 263 276
e 263 277
e 263 278
e 263 279
e 263 280
e 264 265
e 264 266
e 264 267
e 264 268
e 264 270
e 264 271
e 264 272
e 264 273
e 264 274
e 264 275
e 264 276
e 264 277
e 264 278
e 264 279
e 264 280
e 265 266
e 265 267
e 265 268
e 265 270
e 265 271
e 265 272
e 265 273
e 265 274
e 265 275
e 265 276
e 265 277
e 265 278
e 265 279
e 265 280
e 266 267
e 266 268
e 266 270
e 266 271
e 266 272
e 266 273
e 266 274
e 266 275
e 266 276
e 266 277
e 266 278
e 266 279
e 266 280
e 266 281
e 267 268
e 267 270
e 267 271
e 267 272
e 267 273
e 267 274
e 267 275
e 267 276
e 267 277
e 267 279
e 267 280
e 267 281
e 267 282
e 268 270
e 268 271
e 268 272
e 268 273
e 268 274
e 268 275
e 268 276
e 268 277
e 268 279
e 268 280
e 268 281
e 268 282
e 269 270
e 269 278
e 269 283
e 270 271
e 270 272
e 270 273
e 270 276
e 270 277
e 270 278
e 270 279
e 270 284
e 271 272
e 271 273
e 271 274
e 271 275
e 271 276
e 271 277
e 271 278
e 271 279
e 271 280
e 272 273
e 272 274
e 272 275
e 272 276
e 272 277
e 272 278
e 272 279
e 272 280
e 272 281
e 272 282
e 273 274
e 273 275
e 273 276
e 273 277
e 273 279
e 273 280
e 273 281
e 273 282
e 274 275
e 274 276
e 274 277
e 274 280
e 274 281
e 274 282
e 275 280
e 275 281
e 275 282
e 276 277
e 276 278
e 276 279
e 276 280
e 276 284
e 277 278
e 277 279
e 277 280
e 277 281
e 277 284
e 278 279
e 278 283
e 278 284
e 278 286
e 278 287
e 278 288
e 279 280
e 279 281
e 279 284
e 279 288
e 280 281
e 280 282
e 280 289
e 280 290
e 280 291
e 280 292
e 281 282
e 281 289
e 281 290
e 281 291
e 281 292
e 281 298
e 282 289
e 282 290
e 282 291
e 282 292
e 283 284
e 283 285
e 283 286
e 283 287
e 283 288
e 283 293
e 283 294
e 283 295
e 283 299
e 284 285
e 284 286
e 284 287
e 284 288
e 284 293
e 284 294
e 284 295
e 284 296
e 284 297
e 284 299
e 284 300
e 284 305
e 285 286
e 285 287
e 285 288
e 285 293
e 285 294
e 285 295
e 285 296
e 285 297
e 285 299
e 285 300
e 285 301
e 285 304
e 285 305
e 285 306
e 285 307
e 285 309
e 285 310
e 285 311
e 285 313
e 285 314
e 285 315
e 285 316
e 285 320
e 286 287
e 286 288
e 286 293
e 286 294
e 286 295
e 286 296
e 286 297
e 286 299
e 286 300
e 286 301
e 286 302
e 286 304
e 286 305
e 286 306
e 286 307
e 286 309
e 286 310
e 286 311
e 286 313
e 286 314
e 286 315
e 286 316
e 286 320
e 287 288
e 287 293
e 287 294
e 287 295
e 287 296
e 287 297
e 287 299
e 287 300
e 287 301
e 287 302
e 287 304
e 287 305
e 287 306
e 287 307
e 287 309
e 287 310
e 287 311
e 287 313
e 287 314
e 287 315
e 287 316
e 287 317
e 287 320
e 288 293
e 288 294
e 288 295
e 288 296
e 288 297
e 288 298
e 288 299
e 288 300
e 288 301
e 288 302
e 288 303
e 288 304
e 288 305
e 288 306
e 288 307
e 288 308
e 288 309
e 288 310
e 288 311
e 288 313
e 288 314
e 288 315
e 288 316
e 288 317
e 289 290
e 289 291
e 289 292
e 289 296
e 289 297
e 289 298
e 289 301
e 289 302
e 289 303
e 289 307
e 289 308
e 289 312
e 289 319
e 290 291
e 290 292
e 290 296
e 290 297
e 290 298
e 290 301
e 290 302
e 290 303
e 290 307
e 290 308
e 290 312
e 290 319
e 291 292
e 291 296
e 291 297
e 291 298
e 291 301
e 291 302
e 291 303
e 291 307
e 291 308
e 291 312
e 291 319
e 292 297
e 292 298
e 292 302
e 292 303
e 292 308
e 292 312
e 293 294
e 293 295
e 293 296
e 293 297
e 293 299
e 293 300
e 293 301
e 293 302
e 293 304
e 293 305
e 293 306
e 293 307
e 293 308
e 293 309
e 293 310
e 293 311
e 293 313
e 293 314
e 293 315
e 293 316
e 293 317
e 293 318
e 293 320
e 294 295
e 294 296
e 294 297
e 294 298
e 294 299
e 294 300
e 294 301
e 294 302
e 294 303
e 294 304
e 294 305
e 294 306
e 294 307
e 294 308
e 294 309
e 294 310
e 294 311
e 294 313
e 294 314
e 294 315
e 294 316
e 294 317
e 294 318
e 294 320
e 295 296
e 295 297
e 295 298
e 295 299
e 295 300
e 295 301
e 295 302
e 295 303
e 295 304
e 295 305
e 295 306
e 295 307
e 295 308
e 295 309
e 295 310
e 295 311
e 295 313
e 295 314
e 295 315
e 295 316
e 295 317
e 295 318
e 295 319
e 295 320
e 296 297
e 296 298
e 296 299
e 296 300
e 296 301
e 296 302
e 296 303
e 296 304
e 296 305
e 296 306
e 296 307
e 296 308
e 296 309
e 296 310
e 296 311
e 296 312
e 296 314
e 296 315
e 296 316
e 296 317
e 296 318
e 296 319
e 297 298
e 297 300
e 297 301
e 297 302
e 297 303
e 297 304
e 297 305
e 297 306
e 297 307
e 297 308
e 297 310
e 297 311
e 297 312
e 297 314
e 297 315
e 297 316
e 297 317
e 297 318
e 297 319
e 298 301
e 298 302
e 298 303
e 298 306
e 298 307
e 298 308
e 298 311
e 298 312
e 298 314
e 298 317
e 298 318
e 298 319
e 299 300
e 299 304
e 299 305
e 299 306
e 299 309
e 299 310
e 299 311
e 299 313
e 299 314
e 299 315
e 299 316
e 299 320
e 300 301
e 300 302
e 300 304
e 300 305
e 300 306
e 300 307
e 300 309
e 300 310
e 300 311
e 300 313
e 300 314
e 300 315
e 300 316
e 300 317
e 300 318
e 300 320
e 301 302
e 301 303
e 301 304
e 301 305
e 301 306
e 301 307
e 301 308
e 301 309
e 301 310
e 301 311
e 301 312
e 301 314
e 301 315
e 301 316
e 301 317
e 301 318
e 301 319
e 302 303
e 302 304
e 302 305
e 302 306
e 302 307
e 302 308
e 302 309
e 302 310
e 302 311
e 302 312
e 302 314
e 302 315
e 302 316
e 302 317
e 302 318
e 302 319
e 303 306
e 303 307
e 303 308
e 303 311
e 303 312
e 303 314
e 303 316
e 303 317
e 303 318
e 303 319
e 304 305
e 304 306
e 304 307
e 304 309
e 304 310
e 304 311
e 304 313
e 304 314
e 304 315
e 304 316
e 304 317
e 304 318
e 304 320
e 304 321
e 305 306
e 305 307
e 305 308
e 305 309
e 305 310
e 305 311
e 305 313
e 305 314
e 305 315
e 305 316
e 305 317
e 305 318
e 305 319
e 305 320
e 305 323
e 306 307
e 306 308
e 306 309
e 306 310
e 306 311
e 306 313
e 306 314
e 306 315
e 306 316
e 306 317
e 306 318
e 306 319
e 306 320
e 307 308
e 307 309
e 307 310
e 307 311
e 307 312
e 307 314
e 307 315
e 307 316
e 307 317
e 307 318
e 307 319
e 308 310
e 308 311
e 308 312
e 308 314
e 308 315
e 308 316
e 308 317
e 308 318
e 308 319
e 309 310
e 309 311
e 309 313
e 309 314
e 309 315
e 309 316
e 309 317
e 309 318
e 309 320
e 309 321
e 309 322
e 309 323
e 310 311
e 310 313
e 310 314
e 310 315
e 310 316
e 310 317
e 310 318
e 310 319
e 310 320
e 310 321
e 310 322
e 310 323
e 311 312
e 311 313
e 311 314
e 311 315
e 311 316
e 311 317
e 311 318
e 311 319
e 311 320
e 311 321
e 311 322
e 311 323
e 311 324
e 312 314
e 312 316
e 312 317
e 312 318
e 312 319
e 312 325
e 313 314
e 313 315
e 313 316
e 313 320
e 313 321
e 314 315
e 314 316
e 314 317
e 314 318
e 314 319
e 314 320
e 314 321
e 314 322
e 314 323
e 314 324
e 315 316
e 315 317
e 315 318
e 315 319
e 315 320
e 315 321
e 315 322
e 315 323
e 315 324
e 315 326
e 315 327
e 315 328
e 315 329
e 316 317
e 316 318
e 316 319
e 316 320
e 316 321
e 316 322
e 316 323
e 316 324
e 316 326
e 316 327
e 316 328
e 317 318
e 317 319
e 317 320
e 317 321
e 317 322
e 317 323
e 317 324
e 317 327
e 317 328
e 318 319
e 318 322
e 318 323
e 318 324
e 318 328
e 319 324
e 319 325
e 320 321
e 320 322
e 320 323
e 320 326
e 320 329
e 321 322
e 321 323
e 321 324
e 321 326
e 321 327
e 321 328
e 321 329
e 321 330
e 321 331
e 321 332
e 321 333
e 321 334
e 321 335
e 321 337
e 321 338
e 321 339
e 322 323
e 322 324
e 322 326
e 322 327
e 322 328
e 322 329
e 322 330
e 322 331
e 322 332
e 322 333
e 322 334
e 322 335
e 322 337
e 322 338
e 322 339
e 323 324
e 323 326
e 323 327
e 323 328
e 323 329
e 323 330
e 323 331
e 323 332
e 323 333
e 323 334
e 323 335
e 323 336
e 323 337
e 323 338
e 323 339
e 324 326
e 324 327
e 324 328
e 324 329
e 324 330
e 324 331
e 324 332
e 324 333
e 324 334
e 324 335
e 324 336
e 324 338
e 324 339
e 324 340
e 325 336
e 326 327
e 326 328
e 326 329
e 326 330
e 326 331
e 326 332
e 326 333
e 326 334
e 326 335
e 326 336
e 326 337
e 326 338
e 326 339
e 326 340
e 327 328
e 327 329
e 327 330
e 327 331
e 327 332
e 327 333
e 327 334
e 327 335
e 327 336
e 327 337
e 327 338
e 327 339
e 327 340
e 328 329
e 328 330
e 328 331
e 328 332
e 328 333
e 328 334
e 328 335
e 328 336
e 328 337
e 328 338
e 328 339
e 328 340
e 329 330
e 329 331
e 329 332
e 329 333
e 329 334
e 329 335
e 329 337
e 329 338
e 329 339
e 330 331
e 330 332
e 330 333
e 330 334
e 330 335
e 330 337
e 330 338
e 330 339
e 330 340
e 331 332
e 331 333
e 331 334
e 331 335
e 331 337
e 331 338
e 331 339
e 331 340
e 331 342
e 332 333
e 332 334
e 332 335
e 332 336
e 332 337
e 332 338
e 332 339
e 332 340
e 332 342
e 333 334
e 333 335
e 333 336
e 333 337
e 333 338
e 333 339
e 333 340
e 333 342
e 334 335
e 334 336
e 334 337
e 334 338
e 334 339
e 334 340
e 334 342
e 334 343
e 335 336
e 335 337
e 335 338
e 335 339
e 335 340
e 335 342
e 335 343
e 336 338
e 336 339
e 336 340
e 336 341
e 336 342
e 336 343
e 337 338
e 337 339
e 338 339
e 338 340
e 338 342
e 338 343
e 339 340
e 339 342
e 339 343
e 340 342
e 340 343
e 341 343
e 342 343
